solution status: optimal solution found
objective value:                     195865.710000025
d11(0,0)                                            1 	(obj:0)
d11(1,1)                                            1 	(obj:0)
d11(1,2)                                            1 	(obj:0)
d11(2,4)                                            1 	(obj:0)
d11(2,5)                                            1 	(obj:0)
d11(2,7)                                            1 	(obj:0)
d11(2,8)                                            1 	(obj:0)
d11(2,10)                                           1 	(obj:0)
d11(2,11)                                           1 	(obj:0)
d11(3,13)                                           1 	(obj:0)
d11(3,14)                                           1 	(obj:0)
d11(3,15)                                           1 	(obj:0)
d11(3,16)                                           1 	(obj:0)
d11(3,17)                                           1 	(obj:0)
d11(3,19)                                           1 	(obj:0)
d11(3,20)                                           1 	(obj:0)
d11(3,21)                                           1 	(obj:0)
d11(3,22)                                           1 	(obj:0)
d11(3,23)                                           1 	(obj:0)
d11(3,24)                                           1 	(obj:0)
d11(3,25)                                           1 	(obj:0)
d11(3,26)                                           1 	(obj:0)
d11(3,27)                                           1 	(obj:0)
d11(3,28)                                           1 	(obj:0)
d11(3,29)                                           1 	(obj:0)
d11(3,30)                                           1 	(obj:0)
d11(3,31)                                           1 	(obj:0)
d11(3,32)                                           1 	(obj:0)
d11(3,33)                                           1 	(obj:0)
d11(3,34)                                           1 	(obj:0)
d11(3,35)                                           1 	(obj:0)
d11(3,37)                                           1 	(obj:0)
d11(3,38)                                           1 	(obj:0)
d11(3,39)                                           1 	(obj:0)
d11(4,40)                                           1 	(obj:0)
d11(4,41)                                           1 	(obj:0)
d11(4,42)                                           1 	(obj:0)
d11(4,43)                                           1 	(obj:0)
d11(4,44)                                           1 	(obj:0)
d11(4,45)                                           1 	(obj:0)
d11(4,46)                                           1 	(obj:0)
d11(4,47)                                           1 	(obj:0)
d11(4,48)                                           1 	(obj:0)
d11(4,49)                                           1 	(obj:0)
d11(4,50)                                           1 	(obj:0)
d11(4,51)                                           1 	(obj:0)
d11(4,52)                                           1 	(obj:0)
d11(4,53)                                           1 	(obj:0)
d11(4,54)                                           1 	(obj:0)
d11(4,55)                                           1 	(obj:0)
d11(4,56)                                           1 	(obj:0)
d11(4,57)                                           1 	(obj:0)
d11(4,58)                                           1 	(obj:0)
d11(4,59)                                           1 	(obj:0)
d11(4,60)                                           1 	(obj:0)
d11(4,61)                                           1 	(obj:0)
d11(4,62)                                           1 	(obj:0)
d11(4,63)                                           1 	(obj:0)
d11(4,64)                                           1 	(obj:0)
d11(4,65)                                           1 	(obj:0)
d11(4,66)                                           1 	(obj:0)
d11(4,67)                                           1 	(obj:0)
d11(4,68)                                           1 	(obj:0)
d11(4,69)                                           1 	(obj:0)
d11(4,70)                                           1 	(obj:0)
d11(4,71)                                           1 	(obj:0)
d11(4,72)                                           1 	(obj:0)
d11(4,73)                                           1 	(obj:0)
d11(4,74)                                           1 	(obj:0)
d11(4,75)                                           1 	(obj:0)
d11(4,76)                                           1 	(obj:0)
d11(4,77)                                           1 	(obj:0)
d11(4,78)                                           1 	(obj:0)
d11(4,79)                                           1 	(obj:0)
d11(4,80)                                           1 	(obj:0)
d11(4,81)                                           1 	(obj:0)
d11(4,82)                                           1 	(obj:0)
d11(4,83)                                           1 	(obj:0)
d11(4,84)                                           1 	(obj:0)
d11(4,85)                                           1 	(obj:0)
d11(4,86)                                           1 	(obj:0)
d11(4,87)                                           1 	(obj:0)
d11(4,88)                                           1 	(obj:0)
d11(4,89)                                           1 	(obj:0)
d11(4,90)                                           1 	(obj:0)
d11(4,91)                                           1 	(obj:0)
d11(4,92)                                           1 	(obj:0)
d11(4,93)                                           1 	(obj:0)
d11(4,94)                                           1 	(obj:0)
d11(4,95)                                           1 	(obj:0)
d11(4,96)                                           1 	(obj:0)
d11(4,97)                                           1 	(obj:0)
d11(4,98)                                           1 	(obj:0)
d11(4,99)                                           1 	(obj:0)
d11(4,100)                                          1 	(obj:0)
d11(4,101)                                          1 	(obj:0)
d11(4,102)                                          1 	(obj:0)
d11(4,103)                                          1 	(obj:0)
d11(4,104)                                          1 	(obj:0)
d11(4,105)                                          1 	(obj:0)
d11(4,106)                                          1 	(obj:0)
d11(4,107)                                          1 	(obj:0)
d11(4,108)                                          1 	(obj:0)
d11(4,109)                                          1 	(obj:0)
d11(4,110)                                          1 	(obj:0)
d11(4,111)                                          1 	(obj:0)
d11(4,112)                                          1 	(obj:0)
d11(4,113)                                          1 	(obj:0)
d11(4,114)                                          1 	(obj:0)
d11(4,115)                                          1 	(obj:0)
d11(4,116)                                          1 	(obj:0)
d11(4,117)                                          1 	(obj:0)
d11(4,118)                                          1 	(obj:0)
d11(4,119)                                          1 	(obj:0)
d11(4,120)                                          1 	(obj:0)
d12(2,6)                                            1 	(obj:0)
d12(2,9)                                            1 	(obj:0)
d12(2,12)                                           1 	(obj:0)
d21(4,40)                                           1 	(obj:0)
d21(4,41)                                           1 	(obj:0)
d21(4,42)                                           1 	(obj:0)
d21(4,43)                                           1 	(obj:0)
d21(4,44)                                           1 	(obj:0)
d21(4,45)                                           1 	(obj:0)
d21(4,46)                                           1 	(obj:0)
d21(4,47)                                           1 	(obj:0)
d21(4,49)                                           1 	(obj:0)
d21(4,50)                                           1 	(obj:0)
d21(4,51)                                           1 	(obj:0)
d21(4,52)                                           1 	(obj:0)
d21(4,53)                                           1 	(obj:0)
d21(4,55)                                           1 	(obj:0)
d21(4,58)                                           1 	(obj:0)
d21(4,59)                                           1 	(obj:0)
d21(4,60)                                           1 	(obj:0)
d21(4,61)                                           1 	(obj:0)
d21(4,62)                                           1 	(obj:0)
d21(4,64)                                           1 	(obj:0)
d21(4,67)                                           1 	(obj:0)
d21(4,68)                                           1 	(obj:0)
d21(4,69)                                           1 	(obj:0)
d21(4,70)                                           1 	(obj:0)
d21(4,71)                                           1 	(obj:0)
d21(4,73)                                           1 	(obj:0)
d21(4,76)                                           1 	(obj:0)
d21(4,77)                                           1 	(obj:0)
d21(4,79)                                           1 	(obj:0)
d21(4,80)                                           1 	(obj:0)
d21(4,82)                                           1 	(obj:0)
d21(4,85)                                           1 	(obj:0)
d21(4,86)                                           1 	(obj:0)
d21(4,88)                                           1 	(obj:0)
d21(4,94)                                           1 	(obj:0)
d21(4,95)                                           1 	(obj:0)
d21(4,97)                                           1 	(obj:0)
d21(4,98)                                           1 	(obj:0)
d21(4,103)                                          1 	(obj:0)
d21(4,106)                                          1 	(obj:0)
d21(4,112)                                          1 	(obj:0)
STE(1,1)                             7928.78179333333 	(obj:0)
STE(0,0)                                        11025 	(obj:0)
STE(1,2)                             8925.54779666662 	(obj:0)
STE(1,3)                                        10143 	(obj:0)
STE(2,4)                             6050.01578999657 	(obj:0)
STE(2,5)                             7046.78179332986 	(obj:0)
STE(2,6)                             7959.34512718028 	(obj:0)
STE(2,7)                             7046.78179332986 	(obj:0)
STE(2,8)                             8043.54779666315 	(obj:0)
STE(2,9)                             8956.11113051357 	(obj:0)
STE(2,10)                            8264.23399666323 	(obj:0)
STE(2,11)                            9260.99999999652 	(obj:0)
STE(2,12)                            10173.5633338469 	(obj:0)
STE(3,13)                            2953.79758332995 	(obj:0)
STE(3,14)                            3950.56358666324 	(obj:0)
STE(3,15)                            5168.01578999657 	(obj:0)
STE(3,16)                            3950.56358666324 	(obj:0)
STE(3,17)                            4947.32958999653 	(obj:0)
STE(3,18)                            6164.78179332986 	(obj:0)
STE(3,19)                            4863.12692051367 	(obj:0)
STE(3,20)                            5859.89292384696 	(obj:0)
STE(3,21)                            7077.34512718033 	(obj:0)
STE(3,22)                            3950.56358666324 	(obj:0)
STE(3,23)                            4947.32958999653 	(obj:0)
STE(3,24)                            6164.78179332991 	(obj:0)
STE(3,25)                            4947.32958999653 	(obj:0)
STE(3,26)                            5944.09559332982 	(obj:0)
STE(3,27)                            7161.54779666315 	(obj:0)
STE(3,28)                            5859.89292384696 	(obj:0)
STE(3,29)                            6856.65892718025 	(obj:0)
STE(3,30)                            8074.11113051363 	(obj:0)
STE(3,31)                            5168.01578999662 	(obj:0)
STE(3,32)                            6164.78179332991 	(obj:0)
STE(3,33)                            7382.23399666329 	(obj:0)
STE(3,34)                            6164.78179332991 	(obj:0)
STE(3,35)                             7161.5477966632 	(obj:0)
STE(3,36)                            8378.99999999652 	(obj:0)
STE(3,37)                            7077.34512718033 	(obj:0)
STE(3,38)                            8074.11113051363 	(obj:0)
STE(3,39)                              9291.563333847 	(obj:0)
STE(4,40)                           -3105.25021333325 	(obj:0)
STE(4,41)                           -2108.48420999996 	(obj:0)
STE(4,42)                           -891.032006666582 	(obj:0)
STE(4,43)                           -2108.48420999996 	(obj:0)
STE(4,44)                           -1111.71820666667 	(obj:0)
STE(4,45)                            105.733996666709 	(obj:0)
STE(4,46)                           -891.032006666637 	(obj:0)
STE(4,47)                            105.733996666654 	(obj:0)
STE(4,48)                            1323.18620000003 	(obj:0)
STE(4,49)                           -2108.48420999996 	(obj:0)
STE(4,50)                           -1111.71820666667 	(obj:0)
STE(4,51)                            105.733996666709 	(obj:0)
STE(4,52)                           -1111.71820666667 	(obj:0)
STE(4,53)                           -114.952203333378 	(obj:0)
STE(4,54)                                      1102.5 	(obj:0)
STE(4,55)                            105.733996666653 	(obj:0)
STE(4,56)                            1102.49999999994 	(obj:0)
STE(4,57)                            2319.95220333332 	(obj:0)
STE(4,58)                           -1195.92087614954 	(obj:0)
STE(4,59)                           -199.154872816247 	(obj:0)
STE(4,60)                            1018.29733051713 	(obj:0)
STE(4,61)                           -199.154872816246 	(obj:0)
STE(4,62)                            797.611130517044 	(obj:0)
STE(4,63)                            2015.06333385042 	(obj:0)
STE(4,64)                            1018.29733051713 	(obj:0)
STE(4,65)                            2015.06333385042 	(obj:0)
STE(4,66)                             3232.5155371838 	(obj:0)
STE(4,67)                           -2108.48420999996 	(obj:0)
STE(4,68)                           -1111.71820666667 	(obj:0)
STE(4,69)                            105.733996666709 	(obj:0)
STE(4,70)                           -1111.71820666667 	(obj:0)
STE(4,71)                           -114.952203333378 	(obj:0)
STE(4,72)                                      1102.5 	(obj:0)
STE(4,73)                            105.733996666709 	(obj:0)
STE(4,74)                                      1102.5 	(obj:0)
STE(4,75)                            2319.95220333338 	(obj:0)
STE(4,76)                           -1111.71820666667 	(obj:0)
STE(4,77)                           -114.952203333378 	(obj:0)
STE(4,78)                                      1102.5 	(obj:0)
STE(4,79)                           -114.952203333378 	(obj:0)
STE(4,80)                            881.813799999912 	(obj:0)
STE(4,81)                            2099.26600333329 	(obj:0)
STE(4,82)                            1102.49999999994 	(obj:0)
STE(4,83)                            2099.26600333323 	(obj:0)
STE(4,84)                            3316.71820666661 	(obj:0)
STE(4,85)                           -199.154872816247 	(obj:0)
STE(4,86)                            797.611130517044 	(obj:0)
STE(4,87)                            2015.06333385042 	(obj:0)
STE(4,88)                            797.611130517044 	(obj:0)
STE(4,89)                            1794.37713385034 	(obj:0)
STE(4,90)                            3011.82933718371 	(obj:0)
STE(4,91)                            2015.06333385043 	(obj:0)
STE(4,92)                            3011.82933718372 	(obj:0)
STE(4,93)                             4229.2815405171 	(obj:0)
STE(4,94)                           -891.032006666582 	(obj:0)
STE(4,95)                            105.733996666709 	(obj:0)
STE(4,96)                            1323.18620000009 	(obj:0)
STE(4,97)                            105.733996666709 	(obj:0)
STE(4,98)                                      1102.5 	(obj:0)
STE(4,99)                            2319.95220333338 	(obj:0)
STE(4,100)                           1323.18620000008 	(obj:0)
STE(4,101)                           2319.95220333337 	(obj:0)
STE(4,102)                           3537.40440666675 	(obj:0)
STE(4,103)                           105.733996666709 	(obj:0)
STE(4,104)                                     1102.5 	(obj:0)
STE(4,105)                           2319.95220333338 	(obj:0)
STE(4,106)                                     1102.5 	(obj:0)
STE(4,107)                           2099.26600333329 	(obj:0)
STE(4,108)                           3316.71820666667 	(obj:0)
STE(4,109)                           2319.95220333332 	(obj:0)
STE(4,110)                           3316.71820666661 	(obj:0)
STE(4,111)                           4534.17040999997 	(obj:0)
STE(4,112)                           1018.29733051713 	(obj:0)
STE(4,113)                           2015.06333385042 	(obj:0)
STE(4,114)                            3232.5155371838 	(obj:0)
STE(4,115)                           2015.06333385042 	(obj:0)
STE(4,116)                           3011.82933718371 	(obj:0)
STE(4,117)                           4229.28154051709 	(obj:0)
STE(4,118)                            3232.5155371838 	(obj:0)
STE(4,119)                           4229.28154051709 	(obj:0)
STE(4,120)                           5446.73374385047 	(obj:0)
y1(4,100)                            4659.34301699688 	(obj:0)
y1(4,101)                            3762.25361399692 	(obj:0)
y1(4,102)                            2666.54663099688 	(obj:0)
y1(4,103)                            4659.34301699688 	(obj:0)
y1(4,104)                            3762.25361399692 	(obj:0)
y1(4,105)                            2666.54663099688 	(obj:0)
y1(4,106)                            4659.34301699688 	(obj:0)
y1(4,107)                            3762.25361399692 	(obj:0)
y1(4,108)                            2666.54663099688 	(obj:0)
y1(4,109)                            4659.34301699688 	(obj:0)
y1(4,110)                            3762.25361399692 	(obj:0)
y1(4,111)                             2666.5466309969 	(obj:0)
y1(4,112)                            4659.34301699688 	(obj:0)
y1(4,113)                            3762.25361399692 	(obj:0)
y1(4,114)                            2666.54663099688 	(obj:0)
y1(4,115)                            4659.34301699688 	(obj:0)
y1(4,116)                            3762.25361399692 	(obj:0)
y1(4,117)                            2666.54663099688 	(obj:0)
y1(4,118)                            4659.34301699688 	(obj:0)
y1(4,119)                            3762.25361399692 	(obj:0)
y1(4,120)                            2666.54663099688 	(obj:0)
AVE(3)                                3399.3204933139 	(obj:0)
WB(4)                                3353.21046544222 	(obj:0)
AVE(4)                               3353.21046544222 	(obj:0)
WG(3)                                 3399.3204933139 	(obj:10)
BG(1)                                4495.91835000003 	(obj:10)
BG(2)                                3377.85000000314 	(obj:10)
BG(3)                                1096.59785668604 	(obj:10)
BG(4)                                 7216.8842999968 	(obj:10)
WB(1)                                3134.60043707461 	(obj:0)
AVE(1)                               3134.60043707458 	(obj:0)
WB(2)                                3326.45170866643 	(obj:0)
AVE(2)                               3326.45170866643 	(obj:0)
y1(1,1)                                   1992.796386 	(obj:0)
y1(1,2)                              1095.70698300004 	(obj:0)
y1(2,4)                               897.08940300309 	(obj:0)
y1(2,5)                          3.12820702674799e-009 	(obj:0)
y1(2,7)                               897.08940300309 	(obj:0)
y1(2,8)                          3.12820702674799e-009 	(obj:0)
y1(2,10)                              897.08940300309 	(obj:0)
y1(2,11)                         3.12807969748974e-009 	(obj:0)
y1(3,13)                             1992.79638599995 	(obj:0)
y1(3,14)                             1095.70698299999 	(obj:0)
y1(3,16)                             1992.79638599995 	(obj:0)
y1(3,17)                             1095.70698299999 	(obj:0)
y1(3,19)                             1992.79638599995 	(obj:0)
y1(3,20)                             1095.70698299999 	(obj:0)
y1(3,22)                             1992.79638599995 	(obj:0)
y1(3,23)                             1095.70698299999 	(obj:0)
y1(3,25)                             1992.79638599995 	(obj:0)
y1(3,26)                             1095.70698299999 	(obj:0)
y1(3,28)                             1992.79638599995 	(obj:0)
y1(3,29)                             1095.70698299999 	(obj:0)
y1(3,31)                             1992.79638599995 	(obj:0)
y1(3,32)                             1095.70698299999 	(obj:0)
y1(3,34)                             1992.79638599995 	(obj:0)
y1(3,35)                             1095.70698299999 	(obj:0)
y1(3,37)                             1992.79638599995 	(obj:0)
y1(3,38)                             1095.70698299999 	(obj:0)
y1(4,40)                             4659.34301699688 	(obj:0)
y1(4,41)                             3762.25361399692 	(obj:0)
y1(4,42)                             2666.54663099688 	(obj:0)
y1(4,43)                             4659.34301699688 	(obj:0)
y1(4,44)                             3762.25361399692 	(obj:0)
y1(4,45)                             2666.54663099688 	(obj:0)
y1(4,46)                             4659.34301699688 	(obj:0)
y1(4,47)                             3762.25361399692 	(obj:0)
y1(4,48)                             2666.54663099688 	(obj:0)
y1(4,49)                             4659.34301699688 	(obj:0)
y1(4,50)                             3762.25361399692 	(obj:0)
y1(4,51)                             2666.54663099688 	(obj:0)
y1(4,52)                             4659.34301699688 	(obj:0)
y1(4,53)                             3762.25361399692 	(obj:0)
y1(4,54)                             2666.54663099688 	(obj:0)
y1(4,55)                             4659.34301699688 	(obj:0)
y1(4,56)                             3762.25361399692 	(obj:0)
y1(4,57)                             2666.54663099688 	(obj:0)
y1(4,58)                             4659.34301699688 	(obj:0)
y1(4,59)                             3762.25361399692 	(obj:0)
y1(4,60)                             2666.54663099688 	(obj:0)
y1(4,61)                             4659.34301699688 	(obj:0)
y1(4,62)                             3762.25361399692 	(obj:0)
y1(4,63)                             2666.54663099688 	(obj:0)
y1(4,64)                             4659.34301699688 	(obj:0)
y1(4,65)                             3762.25361399692 	(obj:0)
y1(4,66)                             2666.54663099688 	(obj:0)
y1(4,67)                             4659.34301699688 	(obj:0)
y1(4,68)                             3762.25361399692 	(obj:0)
y1(4,69)                             2666.54663099688 	(obj:0)
y1(4,70)                             4659.34301699688 	(obj:0)
y1(4,71)                             3762.25361399692 	(obj:0)
y1(4,72)                             2666.54663099688 	(obj:0)
y1(4,73)                             4659.34301699688 	(obj:0)
y1(4,74)                             3762.25361399692 	(obj:0)
y1(4,75)                             2666.54663099688 	(obj:0)
y1(4,76)                             4659.34301699688 	(obj:0)
y1(4,77)                             3762.25361399692 	(obj:0)
y1(4,78)                             2666.54663099688 	(obj:0)
y1(4,79)                             4659.34301699688 	(obj:0)
y1(4,80)                             3762.25361399692 	(obj:0)
y1(4,81)                             2666.54663099688 	(obj:0)
y1(4,82)                             4659.34301699688 	(obj:0)
y1(4,83)                             3762.25361399692 	(obj:0)
y1(4,84)                             2666.54663099688 	(obj:0)
y1(4,85)                             4659.34301699688 	(obj:0)
y1(4,86)                             3762.25361399692 	(obj:0)
y1(4,87)                             2666.54663099688 	(obj:0)
y1(4,88)                             4659.34301699688 	(obj:0)
y1(4,89)                             3762.25361399692 	(obj:0)
y1(4,90)                             2666.54663099688 	(obj:0)
y1(4,91)                             4659.34301699688 	(obj:0)
y1(4,92)                             3762.25361399692 	(obj:0)
y1(4,93)                             2666.54663099688 	(obj:0)
y1(4,94)                             4659.34301699688 	(obj:0)
y1(4,95)                             3762.25361399692 	(obj:0)
y1(4,96)                             2666.54663099688 	(obj:0)
y1(4,97)                             4659.34301699688 	(obj:0)
y1(4,98)                             3762.25361399692 	(obj:0)
y1(4,99)                             2666.54663099688 	(obj:0)
y2(2,6)                              960.592982996786 	(obj:0)
y2(2,9)                              960.592982996786 	(obj:0)
y2(2,12)                             960.592982996786 	(obj:0)
